14
  -1   26   46   74   82   65  102  100  147  134   75   69  106  117  
  66   -1   20   48   56   39   76  109  156  140  141  135  172  183  
  46   53   -1   28   36   19   56   89  136  120  121  115  152  163  
  73   87   72   -1   30   46   50   83  130  114  117  137  174  185  
  43   57   42   70   -1   16   20   53  100   84   87  107  144  155  
  27   41   26   54   62   -1   82   97  144  131  102   96  133  144  
 106  120  105   91   63   79   -1   33   80   64   67   87  124  135 
 109  135  155  183  161  174  142   -1   47   34   34   54   91  102 
 157  171  156  141  114  130   95   60   -1   40   94  114  151  162 
 143  169  174  159  132  148  113   34   31   -1   68   88  122  133 
  75  101  121  149  157  140  176   34   81   68   -1   20   57   68   
  95  121  141  169  177  160  196   54  101   88   20   -1   37   48   
  90  116  136  164  172  155  192   91  138  122   57   37   -1   11   
  79  105  125  153  161  144  181   91  138  125   57   37   54   -1   
  
 
